GeneratedTests/Random_6/Random_6_15.tsp
NAME: Random_6_15
TYPE: TSP
DIMENSION: 6
EDGE_WEIGHT_TYPE: EUC_2D
NODE_COORD_SECTION
1 1.8445283 17.91255
2 17.562073 8.621363
3 3.935439 6.060273
4 9.161492 2.1220179
5 12.490629 4.3212814
6 6.4156175 13.5272
EOF
