GeneratedTests/Random_6/Random_6_15.txt
NAME: Random_6_15
TYPE: TSP
DIMENSION: 6
EDGE_WEIGHT_TYPE: EUC_2D
NODE_COORD_SECTION
1 7.6781697 8.394335
2 4.7676105 13.041504
3 11.324499 14.528858
4 11.679174 10.720977
5 0.035469532 9.267245
6 11.167484 12.307005
EOF
